(set-info :smt-lib-version 2.6)
(set-info :category "crafted")
(set-logic QF_FFA)
(define-sort FF0 () (_ FiniteField 52435875175126190479447740508185965837690552500527637822603658699938581184513))
(declare-fun b () Bool)
(declare-fun f () Bool)
(declare-fun d () Bool)
(declare-fun e () Bool)
(declare-fun c () Bool)
(declare-fun a () Bool)
(declare-fun return_n3 () FF0)
(declare-fun mul_n70 () FF0)
(declare-fun mul_n73 () FF0)
(declare-fun mul_n44 () FF0)
(declare-fun is_zero_n76 () FF0)
(declare-fun mul_n47 () FF0)
(declare-fun mul_n50 () FF0)
(declare-fun mul_n56 () FF0)
(declare-fun is_zero_n36 () FF0)
(declare-fun mul_n68 () FF0)
(declare-fun mul_n71 () FF0)
(declare-fun mul_n45 () FF0)
(declare-fun mul_n77 () FF0)
(declare-fun mul_n57 () FF0)
(declare-fun mul_n63 () FF0)
(declare-fun mul_n69 () FF0)
(declare-fun mul_n55 () FF0)
(declare-fun mul_n67 () FF0)
(declare-fun a_n6 () FF0)
(declare-fun mul_n64 () FF0)
(declare-fun is_zero_inv_n78 () FF0)
(declare-fun mul_n25 () FF0)
(declare-fun mul_n74 () FF0)
(declare-fun mul_n66 () FF0)
(declare-fun is_zero_n42 () FF0)
(declare-fun is_zero_n32 () FF0)
(declare-fun is_zero_inv_n75 () FF0)
(declare-fun mul_n72 () FF0)
(declare-fun mul_n53 () FF0)
(declare-fun mul_n48 () FF0)
(declare-fun mul_n27 () FF0)
(declare-fun mul_n60 () FF0)
(declare-fun b_n4 () FF0)
(declare-fun mul_n8 () FF0)
(declare-fun mul_n24 () FF0)
(declare-fun mul_n65 () FF0)
(declare-fun mul_n17 () FF0)
(declare-fun mul_n18 () FF0)
(declare-fun f_n5 () FF0)
(declare-fun is_zero_n59 () FF0)
(declare-fun mul_n62 () FF0)
(declare-fun d_n1 () FF0)
(declare-fun mul_n28 () FF0)
(declare-fun mul_n7 () FF0)
(declare-fun mul_n16 () FF0)
(declare-fun is_zero_n38 () FF0)
(declare-fun c_n2 () FF0)
(declare-fun mul_n33 () FF0)
(declare-fun is_zero_n20 () FF0)
(declare-fun mul_n26 () FF0)
(declare-fun e_n0 () FF0)
(declare-fun is_zero_inv_n58 () FF0)
(declare-fun mul_n51 () FF0)
(declare-fun mul_n21 () FF0)
(declare-fun mul_n54 () FF0)
(declare-fun is_zero_n40 () FF0)
(declare-fun mul_n52 () FF0)
(declare-fun mul_n30 () FF0)
(declare-fun mul_n49 () FF0)
(declare-fun mul_n9 () FF0)
(declare-fun mul_n34 () FF0)
(declare-fun mul_n46 () FF0)
(declare-fun mul_n14 () FF0)
(declare-fun is_zero_n13 () FF0)
(declare-fun is_zero_n11 () FF0)
(declare-fun mul_n43 () FF0)
(declare-fun is_zero_n23 () FF0)
(declare-fun is_zero_inv_n41 () FF0)
(declare-fun is_zero_inv_n39 () FF0)
(declare-fun is_zero_inv_n37 () FF0)
(declare-fun is_zero_inv_n35 () FF0)
(declare-fun is_zero_inv_n31 () FF0)
(declare-fun mul_n29 () FF0)
(declare-fun is_zero_inv_n22 () FF0)
(declare-fun is_zero_inv_n19 () FF0)
(declare-fun mul_n15 () FF0)
(declare-fun is_zero_inv_n12 () FF0)
(declare-fun is_zero_inv_n10 () FF0)
(assert 
  (let ((let0 b))
  (let ((let1 f))
  (let ((let2 d))
  (let ((let3 e))
  (let ((let4 c))
  (let ((let5 (ite let4 let3 let2)))
  (let ((let6 (ite let5 let1 let0)))
  (let ((let7 a))
  (let ((let8 (ite let7 let2 let0)))
  (let ((let9 (or let1 let8 let3 let7)))
  (let ((let10 (and let8 let5 let9 let6 let9 let7 let9 let4)))
  (let ((let11 (ite let10 let3 let10)))
  (let ((let12 (not let1)))
  (let ((let13 (or let12 let11 let6)))
  (let ((let14 (=> let6 let11)))
  (let ((let15 (= let12 let14)))
  (let ((let16 (not let2)))
  (let ((let17 (or let16 let16 let15 let5 let14)))
  (let ((let18 (ite let0 let12 let13)))
  (let ((let19 (and let18 let17 let10 let13)))
  (let ((let20 (or let14 let19)))
  (let ((let21 (and let20 let13)))
  (let ((let22 (and let10 let20)))
  (let ((let23 (=> let12 let17)))
  (let ((let24 (= let5 let23)))
  (let ((let25 (=> let19 let24)))
  (let ((let26 (ite let25 let22 let21)))
  (let ((let27 (not let7)))
  (let ((let28 (and let18 let4 let2 let27 let15)))
  (let ((let29 (= let28 let17)))
  (let ((let30 (= let8 let29)))
  (let ((let31 (or let18 let27 let11 let8)))
  (let ((let32 (not let31)))
  (let ((let33 (or let28 let31 let13 let14 let27 let3)))
  (let ((let34 (and let33 let33 let16 let9 let32 let15 let32)))
  (let ((let35 (or let24 let34 let17 let30)))
  (let ((let36 (and let19 let33 let32)))
  (let ((let37 (not let36)))
  (let ((let38 (=> let9 let11)))
  (let ((let39 (and let38 let37 let35)))
  (let ((let40 (=> let23 let30)))
  (let ((let41 (ite let40 let39 let26)))
  (let ((let42 (not let41)))
  (let ((let43 (=> let36 let42)))
  (let ((let44 (=> let1 let24)))
  (let ((let45 (or let6 let1)))
  (let ((let46 (or let45 let34)))
  (let ((let47 (not let28)))
  (let ((let48 (ite let34 let47 let46)))
  (let ((let49 (or let48 let44)))
  (let ((let50 (=> let18 let44)))
  (let ((let51 (= let7 let31)))
  (let ((let52 (and let4 let33 let22 let37 let3 let29)))
  (let ((let53 (ite let13 let32 let23)))
  (let ((let54 (ite let53 let52 let52)))
  (let ((let55 (and let24 let54 let51)))
  (let ((let56 (=> let54 let52)))
  (let ((let57 (and let15 let56 let20)))
  (let ((let58 (=> let57 let55)))
  (let ((let59 (ite let37 let40 let51)))
  (let ((let60 (= let56 let39)))
  (let ((let61 (= let60 let59)))
  (let ((let62 (and let6 let53)))
  (let ((let63 (=> let59 let40)))
  (let ((let64 (ite let46 let63 let36)))
  (let ((let65 (= let21 let59)))
  (let ((let66 (and let65 let36 let35 let47)))
  (let ((let67 (not let55)))
  (let ((let68 (ite let57 let65 let38)))
  (let ((let69 (and let68 let67 let66 let64 let62 let61 let58 let50 let49 let43)))
  (let ((let70 return_n3))
  (let ((let71 (as ff1 FF0)))
  (let ((let72 (= let71 let70)))
  (let ((let73 (= let72 let69)))
  (let ((let74 (as ff0 FF0)))
  (let ((let75 (= let74 let70)))
  (let ((let76 (or let72 let75)))
  (let ((let77 (and let76 let73)))
  (let ((let78 (as ff3 FF0)))
  (let ((let79 (as ff52435875175126190479447740508185965837690552500527637822603658699938581184512 FF0)))
  (let ((let80 mul_n70))
  (let ((let81 (ff.mul let80 let79)))
  (let ((let82 mul_n73))
  (let ((let83 (ff.mul let82 let79)))
  (let ((let84 mul_n44))
  (let ((let85 (ff.mul let84 let79)))
  (let ((let86 is_zero_n76))
  (let ((let87 (ff.mul let86 let79)))
  (let ((let88 mul_n47))
  (let ((let89 (ff.mul let88 let79)))
  (let ((let90 mul_n50))
  (let ((let91 mul_n56))
  (let ((let92 is_zero_n36))
  (let ((let93 mul_n68))
  (let ((let94 mul_n71))
  (let ((let95 (ff.mul let94 let79)))
  (let ((let96 mul_n45))
  (let ((let97 mul_n77))
  (let ((let98 (ff.mul let97 let79)))
  (let ((let99 mul_n57))
  (let ((let100 mul_n63))
  (let ((let101 mul_n69))
  (let ((let102 mul_n55))
  (let ((let103 mul_n67))
  (let ((let104 a_n6))
  (let ((let105 (ff.mul let104 let79)))
  (let ((let106 mul_n64))
  (let ((let107 (ff.add let106 let105 let103 let102 let101 let100 let99 let98 let96 let95 let93 let92 let91 let90 let89 let87 let85 let83 let81 let78)))
  (let ((let108 (ff.mul let70 let107)))
  (let ((let109 (= let108 let74)))
  (let ((let110 (ff.mul let70 let79)))
  (let ((let111 (ff.add let110 let71)))
  (let ((let112 is_zero_inv_n78))
  (let ((let113 (ff.mul let112 let107)))
  (let ((let114 (= let113 let111)))
  (let ((let115 (ff.mul let99 let79)))
  (let ((let116 (ff.mul let92 let79)))
  (let ((let117 mul_n25))
  (let ((let118 (ff.mul let117 let79)))
  (let ((let119 (ff.mul let93 let79)))
  (let ((let120 mul_n74))
  (let ((let121 (ff.add let104 let96 let120 let119 let118 let116 let115)))
  (let ((let122 mul_n66))
  (let ((let123 (ff.mul let122 let121)))
  (let ((let124 (= let123 let97)))
  (let ((let125 is_zero_n42))
  (let ((let126 (ff.mul let120 let79)))
  (let ((let127 is_zero_n32))
  (let ((let128 (ff.add let127 let126 let125 let92 let93 let85 let99 let117 let105 let71)))
  (let ((let129 (ff.mul let86 let128)))
  (let ((let130 (= let129 let74)))
  (let ((let131 (ff.add let87 let71)))
  (let ((let132 is_zero_inv_n75))
  (let ((let133 (ff.mul let132 let128)))
  (let ((let134 (= let133 let131)))
  (let ((let135 (ff.add let93 let92 let99 let105)))
  (let ((let136 (as ff2 FF0)))
  (let ((let137 (ff.mul let117 let136)))
  (let ((let138 (ff.mul let137 let135)))
  (let ((let139 (= let138 let120)))
  (let ((let140 mul_n72))
  (let ((let141 (ff.mul let140 let79)))
  (let ((let142 (ff.add let141 let85 let71)))
  (let ((let143 mul_n53))
  (let ((let144 (ff.mul let143 let79)))
  (let ((let145 (ff.add let144 let71)))
  (let ((let146 (ff.mul let145 let142)))
  (let ((let147 (= let146 let82)))
  (let ((let148 mul_n48))
  (let ((let149 (ff.mul let135 let148)))
  (let ((let150 (= let149 let140)))
  (let ((let151 mul_n27))
  (let ((let152 (ff.mul let151 let79)))
  (let ((let153 mul_n60))
  (let ((let154 (ff.add let153 let152 let71)))
  (let ((let155 b_n4))
  (let ((let156 mul_n8))
  (let ((let157 (ff.add let156 let155)))
  (let ((let158 (ff.mul let157 let154)))
  (let ((let159 (= let158 let94)))
  (let ((let160 (as ff52435875175126190479447740508185965837690552500527637822603658699938581184511 FF0)))
  (let ((let161 (ff.mul let88 let160)))
  (let ((let162 (ff.mul let101 let136)))
  (let ((let163 (ff.mul let106 let136)))
  (let ((let164 (ff.add let163 let162 let161)))
  (let ((let165 (ff.mul let164 let135)))
  (let ((let166 (= let165 let80)))
  (let ((let167 (ff.mul let106 let160)))
  (let ((let168 (ff.add let167 let136)))
  (let ((let169 (ff.mul let168 let88)))
  (let ((let170 (= let169 let101)))
  (let ((let171 (ff.mul let148 let79)))
  (let ((let172 (ff.add let171 let116 let115 let104 let71)))
  (let ((let173 (ff.add let85 let71)))
  (let ((let174 (ff.mul let173 let172)))
  (let ((let175 (= let174 let93)))
  (let ((let176 (ff.mul let100 let79)))
  (let ((let177 (ff.add let176 let71)))
  (let ((let178 (ff.mul let122 let177)))
  (let ((let179 (= let178 let103)))
  (let ((let180 mul_n24))
  (let ((let181 (ff.mul let180 let79)))
  (let ((let182 (ff.add let181 let71)))
  (let ((let183 mul_n65))
  (let ((let184 (ff.mul let183 let182)))
  (let ((let185 (= let184 let122)))
  (let ((let186 (ff.mul let106 let79)))
  (let ((let187 (ff.add let186 let71)))
  (let ((let188 mul_n17))
  (let ((let189 mul_n18))
  (let ((let190 f_n5))
  (let ((let191 (ff.add let190 let189 let188 let79)))
  (let ((let192 (ff.mul let191 let187)))
  (let ((let193 (= let192 let183)))
  (let ((let194 is_zero_n59))
  (let ((let195 (ff.mul let194 let79)))
  (let ((let196 (ff.add let195 let71)))
  (let ((let197 (ff.mul let194 let196)))
  (let ((let198 (= let197 let106)))
  (let ((let199 (ff.add let92 let99 let105)))
  (let ((let200 mul_n62))
  (let ((let201 (ff.mul let200 let199)))
  (let ((let202 (= let201 let100)))
  (let ((let203 d_n1))
  (let ((let204 (ff.mul let203 let79)))
  (let ((let205 mul_n28))
  (let ((let206 mul_n7))
  (let ((let207 (ff.mul let206 let79)))
  (let ((let208 (ff.add let207 let205 let204 let151)))
  (let ((let209 (ff.mul let208 let194)))
  (let ((let210 (= let209 let200)))
  (let ((let211 (ff.add let92 let151 let79)))
  (let ((let212 mul_n16))
  (let ((let213 (ff.mul let212 let79)))
  (let ((let214 (ff.add let213 let71)))
  (let ((let215 (ff.mul let214 let211)))
  (let ((let216 (= let215 let153)))
  (let ((let217 (as ff4 FF0)))
  (let ((let218 is_zero_n38))
  (let ((let219 c_n2))
  (let ((let220 (ff.mul let219 let79)))
  (let ((let221 mul_n33))
  (let ((let222 (ff.mul let221 let79)))
  (let ((let223 is_zero_n20))
  (let ((let224 (ff.mul let223 let79)))
  (let ((let225 mul_n26))
  (let ((let226 (ff.mul let225 let79)))
  (let ((let227 e_n0))
  (let ((let228 (ff.mul let227 let79)))
  (let ((let229 (ff.add let228 let127 let226 let224 let222 let220 let84 let218 let217)))
  (let ((let230 (ff.mul let194 let229)))
  (let ((let231 (= let230 let74)))
  (let ((let232 is_zero_inv_n58))
  (let ((let233 (ff.mul let232 let229)))
  (let ((let234 (= let233 let196)))
  (let ((let235 (ff.add let116 let71)))
  (let ((let236 (ff.mul let104 let136)))
  (let ((let237 (ff.mul let236 let235)))
  (let ((let238 (= let237 let99)))
  (let ((let239 mul_n51))
  (let ((let240 mul_n21))
  (let ((let241 (ff.add let213 let240 let71)))
  (let ((let242 (ff.mul let241 let239)))
  (let ((let243 (= let242 let91)))
  (let ((let244 mul_n54))
  (let ((let245 (ff.mul let244 let79)))
  (let ((let246 (ff.add let143 let245)))
  (let ((let247 (ff.mul let246 let239)))
  (let ((let248 (= let247 let102)))
  (let ((let249 (ff.mul let127 let79)))
  (let ((let250 (ff.add let249 let143)))
  (let ((let251 is_zero_n40))
  (let ((let252 (ff.mul let251 let250)))
  (let ((let253 (= let252 let244)))
  (let ((let254 (ff.mul let251 let79)))
  (let ((let255 (ff.add let254 let71)))
  (let ((let256 mul_n52))
  (let ((let257 (ff.mul let256 let255)))
  (let ((let258 (= let257 let143)))
  (let ((let259 (ff.mul let190 let79)))
  (let ((let260 (ff.add let259 let71)))
  (let ((let261 (ff.mul let155 let79)))
  (let ((let262 (ff.mul let156 let79)))
  (let ((let263 (ff.add let262 let261 let71)))
  (let ((let264 (ff.mul let263 let260)))
  (let ((let265 (= let264 let256)))
  (let ((let266 (ff.mul let205 let79)))
  (let ((let267 (ff.add let206 let266 let203 let152 let71)))
  (let ((let268 (ff.mul let190 let267)))
  (let ((let269 (= let268 let239)))
  (let ((let270 mul_n30))
  (let ((let271 mul_n49))
  (let ((let272 (ff.add let271 let117 let270)))
  (let ((let273 (ff.mul let84 let272)))
  (let ((let274 (= let273 let90)))
  (let ((let275 (ff.mul let270 let79)))
  (let ((let276 (ff.add let118 let275 let88)))
  (let ((let277 (ff.add let171 let71)))
  (let ((let278 (ff.mul let277 let276)))
  (let ((let279 (= let278 let271)))
  (let ((let280 mul_n9))
  (let ((let281 mul_n34))
  (let ((let282 (ff.mul let281 let79)))
  (let ((let283 (ff.add let249 let282 let155 let280 let221 let223)))
  (let ((let284 (ff.add let152 let71)))
  (let ((let285 (ff.mul let284 let283)))
  (let ((let286 (= let285 let148)))
  (let ((let287 (ff.mul let125 let79)))
  (let ((let288 (ff.add let287 let71)))
  (let ((let289 mul_n46))
  (let ((let290 (ff.mul let289 let288)))
  (let ((let291 (= let290 let88)))
  (let ((let292 (ff.mul let96 let79)))
  (let ((let293 (ff.add let292 let71)))
  (let ((let294 (ff.mul let293 let173)))
  (let ((let295 (= let294 let289)))
  (let ((let296 mul_n14))
  (let ((let297 (ff.mul let296 let79)))
  (let ((let298 is_zero_n13))
  (let ((let299 (ff.mul let298 let79)))
  (let ((let300 (ff.add let299 let297 let71)))
  (let ((let301 is_zero_n11))
  (let ((let302 (ff.mul let301 let79)))
  (let ((let303 (ff.add let302 let71)))
  (let ((let304 (ff.mul let303 let300)))
  (let ((let305 (= let304 let96)))
  (let ((let306 mul_n43))
  (let ((let307 (ff.mul let306 let92)))
  (let ((let308 (= let307 let84)))
  (let ((let309 (ff.mul let218 let79)))
  (let ((let310 (ff.add let309 let71)))
  (let ((let311 is_zero_n23))
  (let ((let312 (ff.mul let311 let310)))
  (let ((let313 (= let312 let306)))
  (let ((let314 (ff.mul let280 let79)))
  (let ((let315 (ff.mul let223 let160)))
  (let ((let316 (ff.add let127 let207 let315 let204 let261 let151 let251 let222 let281 let205 let314 let136)))
  (let ((let317 (ff.mul let125 let316)))
  (let ((let318 (= let317 let74)))
  (let ((let319 is_zero_inv_n41))
  (let ((let320 (ff.mul let319 let316)))
  (let ((let321 (= let320 let288)))
  (let ((let322 (ff.mul let218 let136)))
  (let ((let323 (ff.mul let189 let79)))
  (let ((let324 (ff.mul let188 let79)))
  (let ((let325 (ff.mul let92 let160)))
  (let ((let326 (ff.add let325 let324 let203 let301 let259 let323 let322 let217)))
  (let ((let327 (ff.mul let251 let326)))
  (let ((let328 (= let327 let74)))
  (let ((let329 is_zero_inv_n39))
  (let ((let330 (ff.mul let329 let326)))
  (let ((let331 (= let330 let255)))
  (let ((let332 (ff.add let127 let213 let227 let116 let324 let105 let217)))
  (let ((let333 (ff.mul let218 let332)))
  (let ((let334 (= let333 let74)))
  (let ((let335 is_zero_inv_n37))
  (let ((let336 (ff.mul let335 let332)))
  (let ((let337 (= let336 let310)))
  (let ((let338 (ff.add let213 let240 let298 let155 let280 let105 let296 let136)))
  (let ((let339 (ff.mul let92 let338)))
  (let ((let340 (= let339 let74)))
  (let ((let341 is_zero_inv_n35))
  (let ((let342 (ff.mul let341 let338)))
  (let ((let343 (= let342 let235)))
  (let ((let344 (ff.add let249 let221 let223)))
  (let ((let345 (ff.mul let280 let136)))
  (let ((let346 (ff.mul let155 let136)))
  (let ((let347 (ff.add let346 let345)))
  (let ((let348 (ff.mul let347 let344)))
  (let ((let349 (= let348 let281)))
  (let ((let350 (ff.add let224 let71)))
  (let ((let351 (ff.mul let127 let136)))
  (let ((let352 (ff.mul let351 let350)))
  (let ((let353 (= let352 let221)))
  (let ((let354 (ff.mul let240 let79)))
  (let ((let355 (ff.add let212 let204 let324 let354 let220 let259 let323 let104 let217)))
  (let ((let356 (ff.mul let127 let355)))
  (let ((let357 (= let356 let74)))
  (let ((let358 (ff.add let249 let71)))
  (let ((let359 is_zero_inv_n31))
  (let ((let360 (ff.mul let359 let355)))
  (let ((let361 (= let360 let358)))
  (let ((let362 (ff.add let118 let225)))
  (let ((let363 mul_n29))
  (let ((let364 (ff.mul let363 let79)))
  (let ((let365 (ff.add let364 let71)))
  (let ((let366 (ff.mul let365 let362)))
  (let ((let367 (= let366 let270)))
  (let ((let368 (ff.mul let311 let267)))
  (let ((let369 (= let368 let363)))
  (let ((let370 (ff.mul let206 let136)))
  (let ((let371 (ff.mul let203 let136)))
  (let ((let372 (ff.add let371 let370)))
  (let ((let373 (ff.mul let372 let284)))
  (let ((let374 (= let373 let205)))
  (let ((let375 (ff.mul let260 let223)))
  (let ((let376 (= let375 let151)))
  (let ((let377 (ff.mul let298 let182)))
  (let ((let378 (= let377 let225)))
  (let ((let379 (ff.mul let182 let214)))
  (let ((let380 (= let379 let117)))
  (let ((let381 (ff.mul let311 let79)))
  (let ((let382 (ff.add let381 let71)))
  (let ((let383 (ff.mul let188 let382)))
  (let ((let384 (= let383 let180)))
  (let ((let385 (ff.mul let212 let136)))
  (let ((let386 (ff.add let385 let354 let299 let223 let71)))
  (let ((let387 (ff.mul let311 let386)))
  (let ((let388 (= let387 let74)))
  (let ((let389 is_zero_inv_n22))
  (let ((let390 (ff.mul let389 let386)))
  (let ((let391 (= let390 let382)))
  (let ((let392 (ff.add let212 let259)))
  (let ((let393 (ff.mul let155 let392)))
  (let ((let394 (= let393 let240)))
  (let ((let395 (ff.add let190 let189 let206 let204 let136)))
  (let ((let396 (ff.mul let223 let395)))
  (let ((let397 (= let396 let74)))
  (let ((let398 is_zero_inv_n19))
  (let ((let399 (ff.mul let398 let395)))
  (let ((let400 (= let399 let350)))
  (let ((let401 (ff.add let324 let71)))
  (let ((let402 (ff.mul let190 let160)))
  (let ((let403 (ff.add let402 let136)))
  (let ((let404 (ff.mul let403 let401)))
  (let ((let405 (= let404 let189)))
  (let ((let406 (ff.mul let157 let300)))
  (let ((let407 (= let406 let188)))
  (let ((let408 mul_n15))
  (let ((let409 (ff.mul let408 let263)))
  (let ((let410 (= let409 let212)))
  (let ((let411 (ff.mul let190 let300)))
  (let ((let412 (= let411 let408)))
  (let ((let413 (ff.add let227 let299)))
  (let ((let414 (ff.mul let298 let413)))
  (let ((let415 (= let414 let296)))
  (let ((let416 (as ff5 FF0)))
  (let ((let417 (ff.mul let301 let78)))
  (let ((let418 (ff.mul let155 let160)))
  (let ((let419 (ff.add let207 let418 let204 let417 let262 let220 let314 let105 let416)))
  (let ((let420 (ff.mul let298 let419)))
  (let ((let421 (= let420 let74)))
  (let ((let422 (ff.add let299 let71)))
  (let ((let423 is_zero_inv_n12))
  (let ((let424 (ff.mul let423 let419)))
  (let ((let425 (= let424 let422)))
  (let ((let426 (ff.add let227 let190 let155 let280 let104)))
  (let ((let427 (ff.mul let301 let426)))
  (let ((let428 (= let427 let74)))
  (let ((let429 is_zero_inv_n10))
  (let ((let430 (ff.mul let429 let426)))
  (let ((let431 (= let430 let303)))
  (let ((let432 (ff.add let261 let203)))
  (let ((let433 (ff.mul let104 let432)))
  (let ((let434 (= let433 let280)))
  (let ((let435 (ff.add let261 let190)))
  (let ((let436 (ff.add let203 let206)))
  (let ((let437 (ff.mul let436 let435)))
  (let ((let438 (= let437 let156)))
  (let ((let439 (ff.add let227 let204)))
  (let ((let440 (ff.mul let219 let439)))
  (let ((let441 (= let440 let206)))
  (let ((let442 (and let441 let438 let434 let431 let428 let425 let421 let415 let412 let410 let407 let405 let400 let397 let394 let391 let388 let384 let380 let378 let376 let374 let369 let367 let361 let357 let353 let349 let343 let340 let337 let334 let331 let328 let321 let318 let313 let308 let305 let295 let291 let286 let279 let274 let269 let265 let258 let253 let248 let243 let238 let234 let231 let216 let210 let202 let198 let193 let185 let179 let175 let170 let166 let159 let150 let147 let139 let134 let130 let124 let114 let109)))
  (let ((let443 (ite let3 let71 let74)))
  (let ((let444 (= let227 let443)))
  (let ((let445 (ite let4 let71 let74)))
  (let ((let446 (= let219 let445)))
  (let ((let447 (ite let7 let71 let74)))
  (let ((let448 (= let104 let447)))
  (let ((let449 (ite let1 let71 let74)))
  (let ((let450 (= let190 let449)))
  (let ((let451 (ite let0 let71 let74)))
  (let ((let452 (= let155 let451)))
  (let ((let453 (ite let2 let71 let74)))
  (let ((let454 (= let203 let453)))
  (let ((let455 (and let454 let452 let450 let448 let446 let444)))
  (let ((let456 (and let455 let442)))
  (let ((let457 (=> let456 let77)))
  (let ((let458 (not let457)))
  let458
)))))))))))))))))))))))))))))))))))))))))))))))))))))))))))))))))))))))))))))))))))))))))))))))))))))))))))))))))))))))))))))))))))))))))))))))))))))))))))))))))))))))))))))))))))))))))))))))))))))))))))))))))))))))))))))))))))))))))))))))))))))))))))))))))))))))))))))))))))))))))))))))))))))))))))))))))))))))))))))))))))))))))))))))))))))))))))))))))))))))))))))))))))))))))))))))))))))))))))))))))))))))))))))))))))))))))))))))))))))))))))))))))))))))))))
)
(check-sat)
